data/lp_files/pEFS/28_8.lp
\ Model foo
\ LP format - for model browsing. Use MPS format to capture full model detail.
Minimize
  z
Subject To
 allocateEach[1]: x[1,1] + x[2,1] = 1
 allocateEach[2]: x[1,2] + x[2,2] = 1
 allocateEach[3]: x[1,3] + x[2,3] = 1
 allocateEach[4]: x[1,4] + x[2,4] = 1
 allocateEach[5]: x[1,5] + x[2,5] = 1
 allocateEach[6]: x[1,6] + x[2,6] = 1
 allocateEach[7]: x[1,7] + x[2,7] = 1
 allocateEach[8]: x[1,8] + x[2,8] = 1
 allocateAllCash: cashProportion[1] + cashProportion[2] = 1
 findWorstP[1,2]: z + 0.1402696684375713 cashProportion[1]
   - 0.1402696684375713 cashProportion[2] + 0.1264180386793611 x[1,1]
   + 0.1633440288955517 x[1,2] + 0.00738169130152719 x[1,3]
   + 0.1522101239633195 x[1,4] + 0.0713095926919503 x[1,5]
   + 0.1487209159609349 x[1,6] + 0.050128872757877 x[1,7]
   + 0.1402170673119072 x[1,8] - 0.1264180386793611 x[2,1]
   - 0.1633440288955517 x[2,2] - 0.00738169130152719 x[2,3]
   - 0.1522101239633195 x[2,4] - 0.0713095926919503 x[2,5]
   - 0.1487209159609349 x[2,6] - 0.050128872757877 x[2,7]
   - 0.1402170673119072 x[2,8] >= 0
 findWorstP[2,1]: z - 0.15563293971169 cashProportion[1]
   + 0.15563293971169 cashProportion[2] - 0.1279497305604731 x[1,1]
   - 0.0274497597416493 x[1,2] - 0.1129116977608311 x[1,3]
   - 0.1760792171663133 x[1,4] - 0.1738030854230298 x[1,5]
   - 0.064276404100928 x[1,6] - 0.0675641499523374 x[1,7]
   - 0.0943330155827481 x[1,8] + 0.1279497305604731 x[2,1]
   + 0.0274497597416493 x[2,2] + 0.1129116977608311 x[2,3]
   + 0.1760792171663133 x[2,4] + 0.1738030854230298 x[2,5]
   + 0.064276404100928 x[2,6] + 0.0675641499523374 x[2,7]
   + 0.0943330155827481 x[2,8] >= 0
Bounds
 z <= 1
 -infinity <= cashProportion[1] <= 1
 -infinity <= cashProportion[2] <= 1
Binaries
 x[1,1] x[1,2] x[1,3] x[1,4] x[1,5] x[1,6] x[1,7] x[1,8] x[2,1] x[2,2]
 x[2,3] x[2,4] x[2,5] x[2,6] x[2,7] x[2,8]
End
